p tw 196 38221 2 
1 3 
1 4 
1 5 
1 6 
1 7 
1 8 
1 9 
1 10 
1 11 
1 12 
1 13 
1 14 
1 15 
1 24 
1 29 
1 30 
1 43 
1 56 
1 57 
1 68 
1 71 
1 83 
1 85 
1 92 
1 99 
1 102 
1 113 
1 115 
1 127 
1 135 
1 141 
1 147 
1 155 
1 165 
1 169 
1 174 
1 183 
1 187 
2 3 
2 4 
2 5 
2 6 
2 7 
2 8 
2 9 
2 10 
2 11 
2 12 
2 13 
2 14 
2 16 
2 20 
2 30 
2 33 
2 44 
2 45 
2 58 
2 64 
2 72 
2 74 
2 86 
2 96 
2 100 
2 111 
2 114 
2 123 
2 127 
2 128 
2 142 
2 150 
2 156 
2 161 
2 170 
2 182 
2 184 
2 191 
3 4 
3 5 
3 6 
3 7 
3 8 
3 9 
3 10 
3 11 
3 12 
3 13 
3 14 
3 17 
3 18 
3 31 
3 35 
3 45 
3 47 
3 58 
3 59 
3 73 
3 82 
3 85 
3 87 
3 101 
3 108 
3 115 
3 125 
3 129 
3 140 
3 143 
3 151 
3 157 
3 162 
3 171 
3 177 
3 185 
3 188 
4 5 
4 6 
4 7 
4 8 
4 9 
4 10 
4 11 
4 12 
4 13 
4 14 
4 18 
4 22 
4 32 
4 41 
4 46 
4 51 
4 60 
4 66 
4 72 
4 74 
4 88 
4 90 
4 102 
4 112 
4 116 
4 119 
4 130 
4 137 
4 144 
4 145 
4 158 
4 166 
4 171 
4 172 
4 183 
4 186 
5 6 
5 7 
5 8 
5 9 
5 10 
5 11 
5 12 
5 13 
5 14 
5 19 
5 25 
5 33 
5 36 
5 47 
5 48 
5 61 
5 70 
5 71 
5 75 
5 87 
5 89 
5 103 
5 110 
5 114 
5 117 
5 131 
5 136 
5 145 
5 149 
5 159 
5 167 
5 173 
5 175 
5 186 
5 187 
6 7 
6 8 
6 9 
6 10 
6 11 
6 12 
6 13 
6 14 
6 15 
6 20 
6 34 
6 42 
6 48 
6 55 
6 59 
6 62 
6 76 
6 81 
6 90 
6 94 
6 104 
6 107 
6 116 
6 118 
6 132 
6 138 
6 146 
6 148 
6 159 
6 160 
6 170 
6 174 
6 188 
6 189 
7 8 
7 9 
7 10 
7 11 
7 12 
7 13 
7 14 
7 19 
7 21 
7 34 
7 35 
7 46 
7 49 
7 63 
7 67 
7 73 
7 77 
7 91 
7 98 
7 105 
7 106 
7 113 
7 119 
7 133 
7 139 
7 147 
7 152 
7 161 
7 163 
7 175 
7 178 
7 184 
7 189 
8 9 
8 10 
8 11 
8 12 
8 13 
8 14 
8 22 
8 28 
8 36 
8 37 
8 50 
8 53 
8 57 
8 64 
8 76 
8 78 
8 89 
8 92 
8 105 
8 106 
8 120 
8 122 
8 129 
8 134 
8 142 
8 148 
8 158 
8 162 
8 176 
8 181 
8 190 
8 194 
9 10 
9 11 
9 12 
9 13 
9 14 
9 16 
9 23 
9 31 
9 37 
9 51 
9 54 
9 61 
9 65 
9 79 
9 84 
9 91 
9 93 
9 99 
9 107 
9 120 
9 121 
9 130 
9 135 
9 149 
9 153 
9 160 
9 163 
9 177 
9 179 
9 191 
9 192 
10 11 
10 12 
10 13 
10 14 
10 24 
10 27 
10 38 
10 39 
10 50 
10 52 
10 62 
10 66 
10 75 
10 80 
10 93 
10 94 
10 100 
10 108 
10 122 
10 124 
10 133 
10 136 
10 150 
10 154 
10 155 
10 164 
10 172 
10 178 
10 185 
10 192 
11 12 
11 13 
11 14 
11 17 
11 25 
11 32 
11 39 
11 43 
11 53 
11 65 
11 67 
11 77 
11 81 
11 95 
11 97 
11 103 
11 109 
11 123 
11 126 
11 128 
11 137 
11 146 
11 151 
11 164 
11 165 
11 179 
11 180 
11 190 
11 193 
12 13 
12 14 
12 21 
12 26 
12 29 
12 40 
12 52 
12 54 
12 68 
12 69 
12 78 
12 82 
12 95 
12 96 
12 101 
12 110 
12 121 
12 124 
12 132 
12 138 
12 144 
12 152 
12 156 
12 166 
12 173 
12 180 
12 194 
12 196 
13 14 
13 23 
13 27 
13 40 
13 41 
13 44 
13 55 
13 63 
13 69 
13 80 
13 83 
13 88 
13 97 
13 104 
13 111 
13 117 
13 125 
13 134 
13 139 
13 143 
13 153 
13 167 
13 168 
13 169 
13 181 
13 193 
13 195 
14 26 
14 28 
14 38 
14 42 
14 49 
14 56 
14 60 
14 70 
14 79 
14 84 
14 86 
14 98 
14 109 
14 112 
14 118 
14 126 
14 131 
14 140 
14 141 
14 154 
14 157 
14 168 
14 176 
14 182 
14 195 
14 196 
15 16 
15 17 
15 18 
15 19 
15 20 
15 21 
15 22 
15 23 
15 24 
15 25 
15 26 
15 27 
15 28 
15 29 
15 42 
15 43 
15 55 
15 57 
15 59 
15 71 
15 81 
15 85 
15 94 
15 99 
15 107 
15 113 
15 116 
15 127 
15 138 
15 141 
15 148 
15 155 
15 159 
15 169 
15 170 
15 183 
15 189 
16 17 
16 18 
16 19 
16 20 
16 21 
16 22 
16 23 
16 24 
16 25 
16 26 
16 27 
16 28 
16 30 
16 31 
16 44 
16 54 
16 58 
16 61 
16 72 
16 84 
16 86 
16 91 
16 99 
16 100 
16 114 
16 120 
16 128 
16 130 
16 142 
16 153 
16 156 
16 160 
16 170 
16 179 
16 184 
16 192 
17 18 
17 19 
17 20 
17 21 
17 22 
17 23 
17 24 
17 25 
17 26 
17 27 
17 28 
17 31 
17 32 
17 43 
17 45 
17 59 
17 65 
17 73 
17 77 
17 87 
17 97 
17 101 
17 103 
17 115 
17 126 
17 128 
17 129 
17 143 
17 146 
17 157 
17 164 
17 171 
17 180 
17 185 
17 190 
18 19 
18 20 
18 21 
18 22 
18 23 
18 24 
18 25 
18 26 
18 27 
18 28 
18 32 
18 35 
18 46 
18 47 
18 58 
18 60 
18 74 
18 82 
18 85 
18 88 
18 102 
18 108 
18 116 
18 125 
18 130 
18 140 
18 144 
18 151 
18 158 
18 162 
18 172 
18 177 
18 186 
18 188 
19 20 
19 21 
19 22 
19 23 
19 24 
19 25 
19 26 
19 27 
19 28 
19 33 
19 34 
19 46 
19 47 
19 61 
19 67 
19 73 
19 75 
19 89 
19 98 
19 103 
19 106 
19 113 
19 117 
19 131 
19 139 
19 145 
19 152 
19 159 
19 163 
19 173 
19 178 
19 184 
19 187 
20 21 
20 22 
20 23 
20 24 
20 25 
20 26 
20 27 
20 28 
20 33 
20 34 
20 45 
20 48 
20 62 
20 64 
20 74 
20 76 
20 90 
20 96 
20 104 
20 111 
20 118 
20 123 
20 127 
20 132 
20 146 
20 150 
20 160 
20 161 
20 174 
20 182 
20 188 
20 191 
21 22 
21 23 
21 24 
21 25 
21 26 
21 27 
21 28 
21 29 
21 35 
21 49 
21 52 
21 63 
21 69 
21 77 
21 78 
21 91 
21 95 
21 101 
21 105 
21 119 
21 121 
21 132 
21 133 
21 144 
21 147 
21 156 
21 161 
21 173 
21 175 
21 189 
21 196 
22 23 
22 24 
22 25 
22 26 
22 27 
22 28 
22 36 
22 41 
22 50 
22 51 
22 64 
22 66 
22 72 
22 78 
22 90 
22 92 
22 106 
22 112 
22 119 
22 120 
22 134 
22 137 
22 145 
22 148 
22 162 
22 166 
22 171 
22 176 
22 183 
22 190 
23 24 
23 25 
23 26 
23 27 
23 28 
23 37 
23 40 
23 44 
23 51 
23 63 
23 65 
23 79 
23 80 
23 88 
23 93 
23 104 
23 107 
23 117 
23 121 
23 134 
23 135 
23 143 
23 149 
23 163 
23 168 
23 169 
23 177 
23 191 
23 193 
24 25 
24 26 
24 27 
24 28 
24 30 
24 38 
24 52 
24 56 
24 66 
24 68 
24 80 
24 83 
24 92 
24 94 
24 102 
24 108 
24 115 
24 122 
24 135 
24 136 
24 147 
24 150 
24 164 
24 165 
24 174 
24 178 
24 187 
24 192 
25 26 
25 27 
25 28 
25 36 
25 39 
25 48 
25 53 
25 67 
25 70 
25 71 
25 81 
25 87 
25 95 
25 109 
25 110 
25 114 
25 123 
25 136 
25 137 
25 149 
25 151 
25 165 
25 167 
25 175 
25 179 
25 186 
25 193 
26 27 
26 28 
26 38 
26 40 
26 49 
26 54 
26 60 
26 68 
26 79 
26 82 
26 86 
26 96 
26 109 
26 110 
26 118 
26 124 
26 131 
26 138 
26 141 
26 152 
26 157 
26 166 
26 176 
26 180 
26 194 
26 195 
27 28 
27 39 
27 41 
27 50 
27 55 
27 62 
27 69 
27 75 
27 83 
27 93 
27 97 
27 100 
27 111 
27 124 
27 125 
27 133 
27 139 
27 153 
27 154 
27 155 
27 167 
27 172 
27 181 
27 185 
27 195 
28 37 
28 42 
28 53 
28 56 
28 57 
28 70 
28 76 
28 84 
28 89 
28 98 
28 105 
28 112 
28 122 
28 126 
28 129 
28 140 
28 142 
28 154 
28 158 
28 168 
28 181 
28 182 
28 194 
28 196 
29 30 
29 31 
29 32 
29 33 
29 34 
29 35 
29 36 
29 37 
29 38 
29 39 
29 40 
29 41 
29 42 
29 43 
29 52 
29 57 
29 69 
29 71 
29 78 
29 85 
29 95 
29 99 
29 101 
29 113 
29 121 
29 127 
29 132 
29 141 
29 144 
29 155 
29 156 
29 169 
29 173 
29 183 
29 196 
30 31 
30 32 
30 33 
30 34 
30 35 
30 36 
30 37 
30 38 
30 39 
30 40 
30 41 
30 42 
30 44 
30 56 
30 58 
30 68 
30 72 
30 83 
30 86 
30 92 
30 100 
30 102 
30 114 
30 115 
30 128 
30 135 
30 142 
30 147 
30 156 
30 165 
30 170 
30 174 
30 184 
30 187 
31 32 
31 33 
31 34 
31 35 
31 36 
31 37 
31 38 
31 39 
31 40 
31 41 
31 42 
31 45 
31 54 
31 59 
31 61 
31 73 
31 84 
31 87 
31 91 
31 99 
31 101 
31 115 
31 120 
31 129 
31 130 
31 143 
31 153 
31 157 
31 160 
31 171 
31 179 
31 185 
31 192 
32 33 
32 34 
32 35 
32 36 
32 37 
32 38 
32 39 
32 40 
32 41 
32 42 
32 43 
32 46 
32 60 
32 65 
32 74 
32 77 
32 88 
32 97 
32 102 
32 103 
32 116 
32 126 
32 128 
32 130 
32 144 
32 146 
32 158 
32 164 
32 172 
32 180 
32 186 
32 190 
33 34 
33 35 
33 36 
33 37 
33 38 
33 39 
33 40 
33 41 
33 42 
33 45 
33 47 
33 61 
33 64 
33 74 
33 75 
33 89 
33 96 
33 103 
33 111 
33 117 
33 123 
33 127 
33 131 
33 145 
33 150 
33 159 
33 161 
33 173 
33 182 
33 187 
33 191 
34 35 
34 36 
34 37 
34 38 
34 39 
34 40 
34 41 
34 42 
34 46 
34 48 
34 62 
34 67 
34 73 
34 76 
34 90 
34 98 
34 104 
34 106 
34 113 
34 118 
34 132 
34 139 
34 146 
34 152 
34 160 
34 163 
34 174 
34 178 
34 184 
34 188 
35 36 
35 37 
35 38 
35 39 
35 40 
35 41 
35 42 
35 47 
35 49 
35 58 
35 63 
35 77 
35 82 
35 85 
35 91 
35 105 
35 108 
35 119 
35 125 
35 133 
35 140 
35 147 
35 151 
35 161 
35 162 
35 175 
35 177 
35 188 
35 189 
36 37 
36 38 
36 39 
36 40 
36 41 
36 42 
36 48 
36 50 
36 64 
36 70 
36 71 
36 78 
36 87 
36 92 
36 106 
36 110 
36 114 
36 120 
36 134 
36 136 
36 148 
36 149 
36 162 
36 167 
36 175 
36 176 
36 186 
36 190 
37 38 
37 39 
37 40 
37 41 
37 42 
37 51 
37 53 
37 57 
37 65 
37 76 
37 79 
37 89 
37 93 
37 105 
37 107 
37 121 
37 122 
37 129 
37 135 
37 142 
37 149 
37 158 
37 163 
37 177 
37 181 
37 191 
37 194 
38 39 
38 40 
38 41 
38 42 
38 49 
38 52 
38 60 
38 66 
38 79 
38 80 
38 86 
38 94 
38 108 
38 109 
38 118 
38 122 
38 131 
38 136 
38 141 
38 150 
38 157 
38 164 
38 176 
38 178 
38 192 
38 195 
39 40 
39 41 
39 42 
39 50 
39 53 
39 62 
39 67 
39 75 
39 81 
39 93 
39 95 
39 100 
39 109 
39 123 
39 124 
39 133 
39 137 
39 151 
39 154 
39 155 
39 165 
39 172 
39 179 
39 185 
39 193 
40 41 
40 42 
40 44 
40 54 
40 63 
40 68 
40 80 
40 82 
40 88 
40 96 
40 104 
40 110 
40 117 
40 124 
40 134 
40 138 
40 143 
40 152 
40 166 
40 168 
40 169 
40 180 
40 193 
40 194 
41 42 
41 51 
41 55 
41 66 
41 69 
41 72 
41 83 
41 90 
41 97 
41 111 
41 112 
41 119 
41 125 
41 137 
41 139 
41 145 
41 153 
41 166 
41 167 
41 171 
41 181 
41 183 
41 195 
42 55 
42 56 
42 59 
42 70 
42 81 
42 84 
42 94 
42 98 
42 107 
42 112 
42 116 
42 126 
42 138 
42 140 
42 148 
42 154 
42 159 
42 168 
42 170 
42 182 
42 189 
42 196 
43 44 
43 45 
43 46 
43 47 
43 48 
43 49 
43 50 
43 51 
43 52 
43 53 
43 54 
43 55 
43 56 
43 57 
43 65 
43 71 
43 77 
43 85 
43 97 
43 99 
43 103 
43 113 
43 126 
43 127 
43 128 
43 141 
43 146 
43 155 
43 164 
43 169 
43 180 
43 183 
43 190 
44 45 
44 46 
44 47 
44 48 
44 49 
44 50 
44 51 
44 52 
44 53 
44 54 
44 55 
44 56 
44 58 
44 63 
44 72 
44 80 
44 86 
44 88 
44 100 
44 104 
44 114 
44 117 
44 128 
44 134 
44 142 
44 143 
44 156 
44 168 
44 169 
44 170 
44 184 
44 193 
45 46 
45 47 
45 48 
45 49 
45 50 
45 51 
45 52 
45 53 
45 54 
45 55 
45 56 
45 59 
45 64 
45 73 
45 74 
45 87 
45 96 
45 101 
45 111 
45 115 
45 123 
45 127 
45 129 
45 143 
45 150 
45 157 
45 161 
45 171 
45 182 
45 185 
45 191 
46 47 
46 48 
46 49 
46 50 
46 51 
46 52 
46 53 
46 54 
46 55 
46 56 
46 60 
46 67 
46 73 
46 74 
46 88 
46 98 
46 102 
46 106 
46 113 
46 116 
46 130 
46 139 
46 144 
46 152 
46 158 
46 163 
46 172 
46 178 
46 184 
46 186 
47 48 
47 49 
47 50 
47 51 
47 52 
47 53 
47 54 
47 55 
47 56 
47 58 
47 61 
47 75 
47 82 
47 85 
47 89 
47 103 
47 108 
47 117 
47 125 
47 131 
47 140 
47 145 
47 151 
47 159 
47 162 
47 173 
47 177 
47 187 
47 188 
48 49 
48 50 
48 51 
48 52 
48 53 
48 54 
48 55 
48 56 
48 62 
48 70 
48 71 
48 76 
48 87 
48 90 
48 104 
48 110 
48 114 
48 118 
48 132 
48 136 
48 146 
48 149 
48 160 
48 167 
48 174 
48 175 
48 186 
48 188 
49 50 
49 51 
49 52 
49 53 
49 54 
49 55 
49 56 
49 60 
49 63 
49 77 
49 79 
49 86 
49 91 
49 105 
49 109 
49 118 
49 119 
49 131 
49 133 
49 141 
49 147 
49 157 
49 161 
49 175 
49 176 
49 189 
49 195 
50 51 
50 52 
50 53 
50 54 
50 55 
50 56 
50 62 
50 64 
50 75 
50 78 
50 92 
50 93 
50 100 
50 106 
50 120 
50 124 
50 133 
50 134 
50 148 
50 154 
50 155 
50 162 
50 172 
50 176 
50 185 
50 190 
51 52 
51 53 
51 54 
51 55 
51 56 
51 65 
51 66 
51 72 
51 79 
51 90 
51 93 
51 107 
51 112 
51 119 
51 121 
51 135 
51 137 
51 145 
51 149 
51 163 
51 166 
51 171 
51 177 
51 183 
51 191 
52 53 
52 54 
52 55 
52 56 
52 66 
52 69 
52 78 
52 80 
52 94 
52 95 
52 101 
52 108 
52 121 
52 122 
52 132 
52 136 
52 144 
52 150 
52 156 
52 164 
52 173 
52 178 
52 192 
52 196 
53 54 
53 55 
53 56 
53 57 
53 67 
53 76 
53 81 
53 89 
53 95 
53 105 
53 109 
53 122 
53 123 
53 129 
53 137 
53 142 
53 151 
53 158 
53 165 
53 179 
53 181 
53 193 
53 194 
54 55 
54 56 
54 61 
54 68 
54 82 
54 84 
54 91 
54 96 
54 99 
54 110 
54 120 
54 124 
54 130 
54 138 
54 152 
54 153 
54 160 
54 166 
54 179 
54 180 
54 192 
54 194 
55 56 
55 59 
55 69 
55 81 
55 83 
55 94 
55 97 
55 107 
55 111 
55 116 
55 125 
55 138 
55 139 
55 148 
55 153 
55 159 
55 167 
55 170 
55 181 
55 189 
55 195 
56 68 
56 70 
56 83 
56 84 
56 92 
56 98 
56 102 
56 112 
56 115 
56 126 
56 135 
56 140 
56 147 
56 154 
56 165 
56 168 
56 174 
56 182 
56 187 
56 196 
57 58 
57 59 
57 60 
57 61 
57 62 
57 63 
57 64 
57 65 
57 66 
57 67 
57 68 
57 69 
57 70 
57 71 
57 76 
57 85 
57 89 
57 99 
57 105 
57 113 
57 122 
57 127 
57 129 
57 141 
57 142 
57 155 
57 158 
57 169 
57 181 
57 183 
57 194 
58 59 
58 60 
58 61 
58 62 
58 63 
58 64 
58 65 
58 66 
58 67 
58 68 
58 69 
58 70 
58 72 
58 82 
58 85 
58 86 
58 100 
58 108 
58 114 
58 125 
58 128 
58 140 
58 142 
58 151 
58 156 
58 162 
58 170 
58 177 
58 184 
58 188 
59 60 
59 61 
59 62 
59 63 
59 64 
59 65 
59 66 
59 67 
59 68 
59 69 
59 70 
59 73 
59 81 
59 87 
59 94 
59 101 
59 107 
59 115 
59 116 
59 129 
59 138 
59 143 
59 148 
59 157 
59 159 
59 170 
59 171 
59 185 
59 189 
60 61 
60 62 
60 63 
60 64 
60 65 
60 66 
60 67 
60 68 
60 69 
60 70 
60 74 
60 79 
60 86 
60 88 
60 102 
60 109 
60 116 
60 118 
60 130 
60 131 
60 141 
60 144 
60 157 
60 158 
60 172 
60 176 
60 186 
60 195 
61 62 
61 63 
61 64 
61 65 
61 66 
61 67 
61 68 
61 69 
61 70 
61 75 
61 84 
61 89 
61 91 
61 99 
61 103 
61 117 
61 120 
61 130 
61 131 
61 145 
61 153 
61 159 
61 160 
61 173 
61 179 
61 187 
61 192 
62 63 
62 64 
62 65 
62 66 
62 67 
62 68 
62 69 
62 70 
62 75 
62 76 
62 90 
62 93 
62 100 
62 104 
62 118 
62 124 
62 132 
62 133 
62 146 
62 154 
62 155 
62 160 
62 172 
62 174 
62 185 
62 188 
63 64 
63 65 
63 66 
63 67 
63 68 
63 69 
63 70 
63 77 
63 80 
63 88 
63 91 
63 104 
63 105 
63 117 
63 119 
63 133 
63 134 
63 143 
63 147 
63 161 
63 168 
63 169 
63 175 
63 189 
63 193 
64 65 
64 66 
64 67 
64 68 
64 69 
64 70 
64 74 
64 78 
64 92 
64 96 
64 106 
64 111 
64 120 
64 123 
64 127 
64 134 
64 148 
64 150 
64 161 
64 162 
64 176 
64 182 
64 190 
64 191 
65 66 
65 67 
65 68 
65 69 
65 70 
65 77 
65 79 
65 93 
65 97 
65 103 
65 107 
65 121 
65 126 
65 128 
65 135 
65 146 
65 149 
65 163 
65 164 
65 177 
65 180 
65 190 
65 191 
66 67 
66 68 
66 69 
66 70 
66 72 
66 80 
66 90 
66 94 
66 108 
66 112 
66 119 
66 122 
66 136 
66 137 
66 145 
66 150 
66 164 
66 166 
66 171 
66 178 
66 183 
66 192 
67 68 
67 69 
67 70 
67 73 
67 81 
67 95 
67 98 
67 106 
67 109 
67 113 
67 123 
67 137 
67 139 
67 151 
67 152 
67 163 
67 165 
67 178 
67 179 
67 184 
67 193 
68 69 
68 70 
68 82 
68 83 
68 92 
68 96 
68 102 
68 110 
68 115 
68 124 
68 135 
68 138 
68 147 
68 152 
68 165 
68 166 
68 174 
68 180 
68 187 
68 194 
69 70 
69 78 
69 83 
69 95 
69 97 
69 101 
69 111 
69 121 
69 125 
69 132 
69 139 
69 144 
69 153 
69 156 
69 167 
69 173 
69 181 
69 195 
69 196 
70 71 
70 84 
70 87 
70 98 
70 110 
70 112 
70 114 
70 126 
70 136 
70 140 
70 149 
70 154 
70 167 
70 168 
70 175 
70 182 
70 186 
70 196 
71 72 
71 73 
71 74 
71 75 
71 76 
71 77 
71 78 
71 79 
71 80 
71 81 
71 82 
71 83 
71 84 
71 85 
71 87 
71 99 
71 110 
71 113 
71 114 
71 127 
71 136 
71 141 
71 149 
71 155 
71 167 
71 169 
71 175 
71 183 
71 186 
72 73 
72 74 
72 75 
72 76 
72 77 
72 78 
72 79 
72 80 
72 81 
72 82 
72 83 
72 84 
72 86 
72 90 
72 100 
72 112 
72 114 
72 119 
72 128 
72 137 
72 142 
72 145 
72 156 
72 166 
72 170 
72 171 
72 183 
72 184 
73 74 
73 75 
73 76 
73 77 
73 78 
73 79 
73 80 
73 81 
73 82 
73 83 
73 84 
73 87 
73 98 
73 101 
73 106 
73 113 
73 115 
73 129 
73 139 
73 143 
73 152 
73 157 
73 163 
73 171 
73 178 
73 184 
73 185 
74 75 
74 76 
74 77 
74 78 
74 79 
74 80 
74 81 
74 82 
74 83 
74 84 
74 88 
74 96 
74 102 
74 111 
74 116 
74 123 
74 127 
74 130 
74 144 
74 150 
74 158 
74 161 
74 172 
74 182 
74 186 
74 191 
75 76 
75 77 
75 78 
75 79 
75 80 
75 81 
75 82 
75 83 
75 84 
75 89 
75 93 
75 100 
75 103 
75 117 
75 124 
75 131 
75 133 
75 145 
75 154 
75 155 
75 159 
75 172 
75 173 
75 185 
75 187 
76 77 
76 78 
76 79 
76 80 
76 81 
76 82 
76 83 
76 84 
76 89 
76 90 
76 104 
76 105 
76 118 
76 122 
76 129 
76 132 
76 142 
76 146 
76 158 
76 160 
76 174 
76 181 
76 188 
76 194 
77 78 
77 79 
77 80 
77 81 
77 82 
77 83 
77 84 
77 91 
77 97 
77 103 
77 105 
77 119 
77 126 
77 128 
77 133 
77 146 
77 147 
77 161 
77 164 
77 175 
77 180 
77 189 
77 190 
78 79 
78 80 
78 81 
78 82 
78 83 
78 84 
78 92 
78 95 
78 101 
78 106 
78 120 
78 121 
78 132 
78 134 
78 144 
78 148 
78 156 
78 162 
78 173 
78 176 
78 190 
78 196 
79 80 
79 81 
79 82 
79 83 
79 84 
79 86 
79 93 
79 107 
79 109 
79 118 
79 121 
79 131 
79 135 
79 141 
79 149 
79 157 
79 163 
79 176 
79 177 
79 191 
79 195 
80 81 
80 82 
80 83 
80 84 
80 88 
80 94 
80 104 
80 108 
80 117 
80 122 
80 134 
80 136 
80 143 
80 150 
80 164 
80 168 
80 169 
80 178 
80 192 
80 193 
81 82 
81 83 
81 84 
81 94 
81 95 
81 107 
81 109 
81 116 
81 123 
81 137 
81 138 
81 148 
81 151 
81 159 
81 165 
81 170 
81 179 
81 189 
81 193 
82 83 
82 84 
82 85 
82 96 
82 108 
82 110 
82 124 
82 125 
82 138 
82 140 
82 151 
82 152 
82 162 
82 166 
82 177 
82 180 
82 188 
82 194 
83 84 
83 92 
83 97 
83 102 
83 111 
83 115 
83 125 
83 135 
83 139 
83 147 
83 153 
83 165 
83 167 
83 174 
83 181 
83 187 
83 195 
84 91 
84 98 
84 99 
84 112 
84 120 
84 126 
84 130 
84 140 
84 153 
84 154 
84 160 
84 168 
84 179 
84 182 
84 192 
84 196 
85 86 
85 87 
85 88 
85 89 
85 90 
85 91 
85 92 
85 93 
85 94 
85 95 
85 96 
85 97 
85 98 
85 99 
85 108 
85 113 
85 125 
85 127 
85 140 
85 141 
85 151 
85 155 
85 162 
85 169 
85 177 
85 183 
85 188 
86 87 
86 88 
86 89 
86 90 
86 91 
86 92 
86 93 
86 94 
86 95 
86 96 
86 97 
86 98 
86 100 
86 109 
86 114 
86 118 
86 128 
86 131 
86 141 
86 142 
86 156 
86 157 
86 170 
86 176 
86 184 
86 195 
87 88 
87 89 
87 90 
87 91 
87 92 
87 93 
87 94 
87 95 
87 96 
87 97 
87 98 
87 101 
87 110 
87 114 
87 115 
87 129 
87 136 
87 143 
87 149 
87 157 
87 167 
87 171 
87 175 
87 185 
87 186 
88 89 
88 90 
88 91 
88 92 
88 93 
88 94 
88 95 
88 96 
88 97 
88 98 
88 102 
88 104 
88 116 
88 117 
88 130 
88 134 
88 143 
88 144 
88 158 
88 168 
88 169 
88 172 
88 186 
88 193 
89 90 
89 91 
89 92 
89 93 
89 94 
89 95 
89 96 
89 97 
89 98 
89 103 
89 105 
89 117 
89 122 
89 129 
89 131 
89 142 
89 145 
89 158 
89 159 
89 173 
89 181 
89 187 
89 194 
90 91 
90 92 
90 93 
90 94 
90 95 
90 96 
90 97 
90 98 
90 104 
90 112 
90 118 
90 119 
90 132 
90 137 
90 145 
90 146 
90 160 
90 166 
90 171 
90 174 
90 183 
90 188 
91 92 
91 93 
91 94 
91 95 
91 96 
91 97 
91 98 
91 99 
91 105 
91 119 
91 120 
91 130 
91 133 
91 147 
91 153 
91 160 
91 161 
91 175 
91 179 
91 189 
91 192 
92 93 
92 94 
92 95 
92 96 
92 97 
92 98 
92 102 
92 106 
92 115 
92 120 
92 134 
92 135 
92 147 
92 148 
92 162 
92 165 
92 174 
92 176 
92 187 
92 190 
93 94 
93 95 
93 96 
93 97 
93 98 
93 100 
93 107 
93 121 
93 124 
93 133 
93 135 
93 149 
93 154 
93 155 
93 163 
93 172 
93 177 
93 185 
93 191 
94 95 
94 96 
94 97 
94 98 
94 107 
94 108 
94 116 
94 122 
94 136 
94 138 
94 148 
94 150 
94 159 
94 164 
94 170 
94 178 
94 189 
94 192 
95 96 
95 97 
95 98 
95 101 
95 109 
95 121 
95 123 
95 132 
95 137 
95 144 
95 151 
95 156 
95 165 
95 173 
95 179 
95 193 
95 196 
96 97 
96 98 
96 110 
96 111 
96 123 
96 124 
96 127 
96 138 
96 150 
96 152 
96 161 
96 166 
96 180 
96 182 
96 191 
96 194 
97 98 
97 103 
97 111 
97 125 
97 126 
97 128 
97 139 
97 146 
97 153 
97 164 
97 167 
97 180 
97 181 
97 190 
97 195 
98 106 
98 112 
98 113 
98 126 
98 139 
98 140 
98 152 
98 154 
98 163 
98 168 
98 178 
98 182 
98 184 
98 196 
99 100 
99 101 
99 102 
99 103 
99 104 
99 105 
99 106 
99 107 
99 108 
99 109 
99 110 
99 111 
99 112 
99 113 
99 120 
99 127 
99 130 
99 141 
99 153 
99 155 
99 160 
99 169 
99 179 
99 183 
99 192 
100 101 
100 102 
100 103 
100 104 
100 105 
100 106 
100 107 
100 108 
100 109 
100 110 
100 111 
100 112 
100 114 
100 124 
100 128 
100 133 
100 142 
100 154 
100 155 
100 156 
100 170 
100 172 
100 184 
100 185 
101 102 
101 103 
101 104 
101 105 
101 106 
101 107 
101 108 
101 109 
101 110 
101 111 
101 112 
101 115 
101 121 
101 129 
101 132 
101 143 
101 144 
101 156 
101 157 
101 171 
101 173 
101 185 
101 196 
102 103 
102 104 
102 105 
102 106 
102 107 
102 108 
102 109 
102 110 
102 111 
102 112 
102 115 
102 116 
102 130 
102 135 
102 144 
102 147 
102 158 
102 165 
102 172 
102 174 
102 186 
102 187 
103 104 
103 105 
103 106 
103 107 
103 108 
103 109 
103 110 
103 111 
103 112 
103 117 
103 126 
103 128 
103 131 
103 145 
103 146 
103 159 
103 164 
103 173 
103 180 
103 187 
103 190 
104 105 
104 106 
104 107 
104 108 
104 109 
104 110 
104 111 
104 112 
104 117 
104 118 
104 132 
104 134 
104 143 
104 146 
104 160 
104 168 
104 169 
104 174 
104 188 
104 193 
105 106 
105 107 
105 108 
105 109 
105 110 
105 111 
105 112 
105 119 
105 122 
105 129 
105 133 
105 142 
105 147 
105 158 
105 161 
105 175 
105 181 
105 189 
105 194 
106 107 
106 108 
106 109 
106 110 
106 111 
106 112 
106 113 
106 120 
106 134 
106 139 
106 148 
106 152 
106 162 
106 163 
106 176 
106 178 
106 184 
106 190 
107 108 
107 109 
107 110 
107 111 
107 112 
107 116 
107 121 
107 135 
107 138 
107 148 
107 149 
107 159 
107 163 
107 170 
107 177 
107 189 
107 191 
108 109 
108 110 
108 111 
108 112 
108 122 
108 125 
108 136 
108 140 
108 150 
108 151 
108 162 
108 164 
108 177 
108 178 
108 188 
108 192 
109 110 
109 111 
109 112 
109 118 
109 123 
109 131 
109 137 
109 141 
109 151 
109 157 
109 165 
109 176 
109 179 
109 193 
109 195 
110 111 
110 112 
110 114 
110 124 
110 136 
110 138 
110 149 
110 152 
110 166 
110 167 
110 175 
110 180 
110 186 
110 194 
111 112 
111 123 
111 125 
111 127 
111 139 
111 150 
111 153 
111 161 
111 167 
111 181 
111 182 
111 191 
111 195 
112 119 
112 126 
112 137 
112 140 
112 145 
112 154 
112 166 
112 168 
112 171 
112 182 
112 183 
112 196 
113 114 
113 115 
113 116 
113 117 
113 118 
113 119 
113 120 
113 121 
113 122 
113 123 
113 124 
113 125 
113 126 
113 127 
113 139 
113 141 
113 152 
113 155 
113 163 
113 169 
113 178 
113 183 
113 184 
114 115 
114 116 
114 117 
114 118 
114 119 
114 120 
114 121 
114 122 
114 123 
114 124 
114 125 
114 126 
114 128 
114 136 
114 142 
114 149 
114 156 
114 167 
114 170 
114 175 
114 184 
114 186 
115 116 
115 117 
115 118 
115 119 
115 120 
115 121 
115 122 
115 123 
115 124 
115 125 
115 126 
115 129 
115 135 
115 143 
115 147 
115 157 
115 165 
115 171 
115 174 
115 185 
115 187 
116 117 
116 118 
116 119 
116 120 
116 121 
116 122 
116 123 
116 124 
116 125 
116 126 
116 130 
116 138 
116 144 
116 148 
116 158 
116 159 
116 170 
116 172 
116 186 
116 189 
117 118 
117 119 
117 120 
117 121 
117 122 
117 123 
117 124 
117 125 
117 126 
117 131 
117 134 
117 143 
117 145 
117 159 
117 168 
117 169 
117 173 
117 187 
117 193 
118 119 
118 120 
118 121 
118 122 
118 123 
118 124 
118 125 
118 126 
118 131 
118 132 
118 141 
118 146 
118 157 
118 160 
118 174 
118 176 
118 188 
118 195 
119 120 
119 121 
119 122 
119 123 
119 124 
119 125 
119 126 
119 133 
119 137 
119 145 
119 147 
119 161 
119 166 
119 171 
119 175 
119 183 
119 189 
120 121 
120 122 
120 123 
120 124 
120 125 
120 126 
120 130 
120 134 
120 148 
120 153 
120 160 
120 162 
120 176 
120 179 
120 190 
120 192 
121 122 
121 123 
121 124 
121 125 
121 126 
121 132 
121 135 
121 144 
121 149 
121 156 
121 163 
121 173 
121 177 
121 191 
121 196 
122 123 
122 124 
122 125 
122 126 
122 129 
122 136 
122 142 
122 150 
122 158 
122 164 
122 178 
122 181 
122 192 
122 194 
123 124 
123 125 
123 126 
123 127 
123 137 
123 150 
123 151 
123 161 
123 165 
123 179 
123 182 
123 191 
123 193 
124 125 
124 126 
124 133 
124 138 
124 152 
124 154 
124 155 
124 166 
124 172 
124 180 
124 185 
124 194 
125 126 
125 139 
125 140 
125 151 
125 153 
125 162 
125 167 
125 177 
125 181 
125 188 
125 195 
126 128 
126 140 
126 146 
126 154 
126 164 
126 168 
126 180 
126 182 
126 190 
126 196 
127 128 
127 129 
127 130 
127 131 
127 132 
127 133 
127 134 
127 135 
127 136 
127 137 
127 138 
127 139 
127 140 
127 141 
127 150 
127 155 
127 161 
127 169 
127 182 
127 183 
127 191 
128 129 
128 130 
128 131 
128 132 
128 133 
128 134 
128 135 
128 136 
128 137 
128 138 
128 139 
128 140 
128 142 
128 146 
128 156 
128 164 
128 170 
128 180 
128 184 
128 190 
129 130 
129 131 
129 132 
129 133 
129 134 
129 135 
129 136 
129 137 
129 138 
129 139 
129 140 
129 142 
129 143 
129 157 
129 158 
129 171 
129 181 
129 185 
129 194 
130 131 
130 132 
130 133 
130 134 
130 135 
130 136 
130 137 
130 138 
130 139 
130 140 
130 144 
130 153 
130 158 
130 160 
130 172 
130 179 
130 186 
130 192 
131 132 
131 133 
131 134 
131 135 
131 136 
131 137 
131 138 
131 139 
131 140 
131 141 
131 145 
131 157 
131 159 
131 173 
131 176 
131 187 
131 195 
132 133 
132 134 
132 135 
132 136 
132 137 
132 138 
132 139 
132 140 
132 144 
132 146 
132 156 
132 160 
132 173 
132 174 
132 188 
132 196 
133 134 
133 135 
133 136 
133 137 
133 138 
133 139 
133 140 
133 147 
133 154 
133 155 
133 161 
133 172 
133 175 
133 185 
133 189 
134 135 
134 136 
134 137 
134 138 
134 139 
134 140 
134 143 
134 148 
134 162 
134 168 
134 169 
134 176 
134 190 
134 193 
135 136 
135 137 
135 138 
135 139 
135 140 
135 147 
135 149 
135 163 
135 165 
135 174 
135 177 
135 187 
135 191 
136 137 
136 138 
136 139 
136 140 
136 149 
136 150 
136 164 
136 167 
136 175 
136 178 
136 186 
136 192 
137 138 
137 139 
137 140 
137 145 
137 151 
137 165 
137 166 
137 171 
137 179 
137 183 
137 193 
138 139 
138 140 
138 148 
138 152 
138 159 
138 166 
138 170 
138 180 
138 189 
138 194 
139 140 
139 152 
139 153 
139 163 
139 167 
139 178 
139 181 
139 184 
139 195 
140 151 
140 154 
140 162 
140 168 
140 177 
140 182 
140 188 
140 196 
141 142 
141 143 
141 144 
141 145 
141 146 
141 147 
141 148 
141 149 
141 150 
141 151 
141 152 
141 153 
141 154 
141 155 
141 157 
141 169 
141 176 
141 183 
141 195 
142 143 
142 144 
142 145 
142 146 
142 147 
142 148 
142 149 
142 150 
142 151 
142 152 
142 153 
142 154 
142 156 
142 158 
142 170 
142 181 
142 184 
142 194 
143 144 
143 145 
143 146 
143 147 
143 148 
143 149 
143 150 
143 151 
143 152 
143 153 
143 154 
143 157 
143 168 
143 169 
143 171 
143 185 
143 193 
144 145 
144 146 
144 147 
144 148 
144 149 
144 150 
144 151 
144 152 
144 153 
144 154 
144 156 
144 158 
144 172 
144 173 
144 186 
144 196 
145 146 
145 147 
145 148 
145 149 
145 150 
145 151 
145 152 
145 153 
145 154 
145 159 
145 166 
145 171 
145 173 
145 183 
145 187 
146 147 
146 148 
146 149 
146 150 
146 151 
146 152 
146 153 
146 154 
146 160 
146 164 
146 174 
146 180 
146 188 
146 190 
147 148 
147 149 
147 150 
147 151 
147 152 
147 153 
147 154 
147 161 
147 165 
147 174 
147 175 
147 187 
147 189 
148 149 
148 150 
148 151 
148 152 
148 153 
148 154 
148 159 
148 162 
148 170 
148 176 
148 189 
148 190 
149 150 
149 151 
149 152 
149 153 
149 154 
149 163 
149 167 
149 175 
149 177 
149 186 
149 191 
150 151 
150 152 
150 153 
150 154 
150 161 
150 164 
150 178 
150 182 
150 191 
150 192 
151 152 
151 153 
151 154 
151 162 
151 165 
151 177 
151 179 
151 188 
151 193 
152 153 
152 154 
152 163 
152 166 
152 178 
152 180 
152 184 
152 194 
153 154 
153 160 
153 167 
153 179 
153 181 
153 192 
153 195 
154 155 
154 168 
154 172 
154 182 
154 185 
154 196 
155 156 
155 157 
155 158 
155 159 
155 160 
155 161 
155 162 
155 163 
155 164 
155 165 
155 166 
155 167 
155 168 
155 169 
155 172 
155 183 
155 185 
156 157 
156 158 
156 159 
156 160 
156 161 
156 162 
156 163 
156 164 
156 165 
156 166 
156 167 
156 168 
156 170 
156 173 
156 184 
156 196 
157 158 
157 159 
157 160 
157 161 
157 162 
157 163 
157 164 
157 165 
157 166 
157 167 
157 168 
157 171 
157 176 
157 185 
157 195 
158 159 
158 160 
158 161 
158 162 
158 163 
158 164 
158 165 
158 166 
158 167 
158 168 
158 172 
158 181 
158 186 
158 194 
159 160 
159 161 
159 162 
159 163 
159 164 
159 165 
159 166 
159 167 
159 168 
159 170 
159 173 
159 187 
159 189 
160 161 
160 162 
160 163 
160 164 
160 165 
160 166 
160 167 
160 168 
160 174 
160 179 
160 188 
160 192 
161 162 
161 163 
161 164 
161 165 
161 166 
161 167 
161 168 
161 175 
161 182 
161 189 
161 191 
162 163 
162 164 
162 165 
162 166 
162 167 
162 168 
162 176 
162 177 
162 188 
162 190 
163 164 
163 165 
163 166 
163 167 
163 168 
163 177 
163 178 
163 184 
163 191 
164 165 
164 166 
164 167 
164 168 
164 178 
164 180 
164 190 
164 192 
165 166 
165 167 
165 168 
165 174 
165 179 
165 187 
165 193 
166 167 
166 168 
166 171 
166 180 
166 183 
166 194 
167 168 
167 175 
167 181 
167 186 
167 195 
168 169 
168 182 
168 193 
168 196 
169 170 
169 171 
169 172 
169 173 
169 174 
169 175 
169 176 
169 177 
169 178 
169 179 
169 180 
169 181 
169 182 
169 183 
169 193 
170 171 
170 172 
170 173 
170 174 
170 175 
170 176 
170 177 
170 178 
170 179 
170 180 
170 181 
170 182 
170 184 
170 189 
171 172 
171 173 
171 174 
171 175 
171 176 
171 177 
171 178 
171 179 
171 180 
171 181 
171 182 
171 183 
171 185 
172 173 
172 174 
172 175 
172 176 
172 177 
172 178 
172 179 
172 180 
172 181 
172 182 
172 185 
172 186 
173 174 
173 175 
173 176 
173 177 
173 178 
173 179 
173 180 
173 181 
173 182 
173 187 
173 196 
174 175 
174 176 
174 177 
174 178 
174 179 
174 180 
174 181 
174 182 
174 187 
174 188 
175 176 
175 177 
175 178 
175 179 
175 180 
175 181 
175 182 
175 186 
175 189 
176 177 
176 178 
176 179 
176 180 
176 181 
176 182 
176 190 
176 195 
177 178 
177 179 
177 180 
177 181 
177 182 
177 188 
177 191 
178 179 
178 180 
178 181 
178 182 
178 184 
178 192 
179 180 
179 181 
179 182 
179 192 
179 193 
180 181 
180 182 
180 190 
180 194 
181 182 
181 194 
181 195 
182 191 
182 196 
183 184 
183 185 
183 186 
183 187 
183 188 
183 189 
183 190 
183 191 
183 192 
183 193 
183 194 
183 195 
183 196 
184 185 
184 186 
184 187 
184 188 
184 189 
184 190 
184 191 
184 192 
184 193 
184 194 
184 195 
184 196 
185 186 
185 187 
185 188 
185 189 
185 190 
185 191 
185 192 
185 193 
185 194 
185 195 
185 196 
186 187 
186 188 
186 189 
186 190 
186 191 
186 192 
186 193 
186 194 
186 195 
186 196 
187 188 
187 189 
187 190 
187 191 
187 192 
187 193 
187 194 
187 195 
187 196 
188 189 
188 190 
188 191 
188 192 
188 193 
188 194 
188 195 
188 196 
189 190 
189 191 
189 192 
189 193 
189 194 
189 195 
189 196 
190 191 
190 192 
190 193 
190 194 
190 195 
190 196 
191 192 
191 193 
191 194 
191 195 
191 196 
192 193 
192 194 
192 195 
192 196 
193 194 
193 195 
193 196 
194 195 
194 196 
195 196 
